B1 C2 N1
1.0
   2.5000000000000000    0.0000000000000000    0.0000000000000000
  -1.2500000000000000    2.1650640000000001    0.0000000000000000
   0.0000000000000000    0.0000000000000000   23.3999999999999986
C B N
2 1 1
direct
   0.3333333333333333    0.6666666666666666    0.4273500000000000 C
   0.6666666666666666    0.3333333333333333    0.4273500000000000 C
   0.3333333333333333    0.6666666666666666    0.5726500000000000 B
   0.6666666666666666    0.3333333333333333    0.5726500000000000 N
