
     Program PWSCF v.7.5 starts on 16Sep2026 at 19:46: 1 

     This program is part of the open-source Quantum ESPRESSO suite
     for quantum simulation of materials; please cite
         "P. Giannozzi et al., J. Phys.:Condens. Matter 21 395502 (2009);
         "P. Giannozzi et al., J. Phys.:Condens. Matter 29 465901 (2017);
         "P. Giannozzi et al., J. Chem. Phys. 152 154105 (2020);
          URL http://www.quantum-espresso.org", 
     in publications or presentations arising from this work. More details at
     http://www.quantum-espresso.org/quote

     Parallel version (MPI & OpenMP), running on       8 processor cores
     Number of MPI processes:                 8
     Threads/MPI process:                     1

     MPI processes distributed on     1 nodes
     41074 MiB available memory on the printing compute node when the environment starts

     Reading input from scf.in

     Current dimensions of program PWSCF are:
     Max number of different atomic species (ntypx) = 10
     Max number of k-points (npk) =  40000
     Max angular momentum in pseudopotentials (lmaxx) =  4
     file B.paw.pbe.z_3.atompaw.jth.v1.1-std.upf: wavefunction(s)  0S 2P 0P renormalized

     R & G space division:  proc/nbgrp/npool/nimage =       8
     Subspace diagonalization in iterative solution of the eigenvalue problem:
     a serial algorithm will be used


     Parallelization info
     --------------------
     sticks:   dense  smooth     PW     G-vecs:    dense   smooth      PW
     Min          31      31     10                 3661     3661     645
     Max          32      32     12                 3681     3681     658
     Sum         253     253     85                29399    29399    5199

     Using Slab Decomposition



     bravais-lattice index     =            0
     lattice parameter (alat)  =       4.7243  a.u.
     unit-cell volume          =     854.7187 (a.u.)^3
     number of atoms/cell      =            4
     number of atomic types    =            3
     number of electrons       =        16.00
     number of Kohn-Sham states=           12
     kinetic-energy cutoff     =      40.0000  Ry
     charge density cutoff     =     160.0000  Ry
     scf convergence threshold =      1.0E-08
     mixing beta               =       0.7000
     number of iterations used =            8  plain     mixing
     Exchange-correlation= PBE
                           (   1   4   3   4   0   0   0)

     celldm(1)=   4.724315  celldm(2)=   0.000000  celldm(3)=   0.000000
     celldm(4)=   0.000000  celldm(5)=   0.000000  celldm(6)=   0.000000

     crystal axes: (cart. coord. in units of alat)
               a(1) = (   1.000000   0.000000   0.000000 )  
               a(2) = (  -0.500000   0.866026   0.000000 )  
               a(3) = (   0.000000   0.000000   9.360000 )  

     reciprocal axes: (cart. coord. in units 2 pi/alat)
               b(1) = (  1.000000  0.577350 -0.000000 )  
               b(2) = (  0.000000  1.154700  0.000000 )  
               b(3) = (  0.000000 -0.000000  0.106838 )  


     PseudoPot. # 1 for C  read from file:
     ./pseudo/C.us.pbe.z_4.uspp.gbrv.v1.2.upf
     MD5 check sum: 9630a62af89b2189feb759fc7f027601
     Pseudo is Ultrasoft + core correction, Zval =  4.0
     
     Using radial grid of  721 points,  4 beta functions with: 
                l(1) =   0
                l(2) =   0
                l(3) =   1
                l(4) =   1
     Q(r) pseudized with 0 coefficients 


     PseudoPot. # 2 for B  read from file:
     ./pseudo/B.paw.pbe.z_3.atompaw.jth.v1.1-std.upf
     MD5 check sum: c3e61bdfb7e69751a71b5a2fc2fbd0b4
     Pseudo is Projector augmented-wave + core cor, Zval =  3.0
     Generated using ATOMPAW code
     Shape of augmentation charge: SINC**2
     Using radial grid of 2342 points,  4 beta functions with: 
                l(1) =   0
                l(2) =   0
                l(3) =   1
                l(4) =   1
     Q(r) pseudized with 0 coefficients 


     PseudoPot. # 3 for N  read from file:
     ./pseudo/N.us.pbe.z_5.uspp.gbrv.v1.2.upf
     MD5 check sum: e3bebb4190c0867c92a1b333844a0f10
     Pseudo is Ultrasoft + core correction, Zval =  5.0
     
     Using radial grid of  729 points,  4 beta functions with: 
                l(1) =   0
                l(2) =   0
                l(3) =   1
                l(4) =   1
     Q(r) pseudized with 0 coefficients 


     atomic species   valence    mass     pseudopotential
     C                 4.00    12.01070     C ( 1.00)
     B                 3.00    10.81100     B ( 1.00)
     N                 5.00    14.00670     N ( 1.00)

     No symmetry found



   Cartesian axes

     site n.     atom                  positions (alat units)
         1        C      tau(   1) = (  -0.0000005   0.5773507   3.9999960  )
         2        C      tau(   2) = (   0.5000005   0.2886749   3.9999960  )
         3        B      tau(   3) = (  -0.2886750   0.4999999   5.3600040  )
         4        N      tau(   4) = (   0.2886750   0.4999999   5.3600040  )

     number of k points=    10  Marzari-Vanderbilt smearing, width (Ry)=  0.0100
                       cart. coord. in units 2pi/alat
        k(    1) = (   0.0000000   0.0000000   0.0000000), wk =   0.1250000
        k(    2) = (   0.0000000   0.2886751   0.0000000), wk =   0.2500000
        k(    3) = (   0.0000000  -0.5773501   0.0000000), wk =   0.1250000
        k(    4) = (   0.2500000   0.4330126   0.0000000), wk =   0.2500000
        k(    5) = (  -0.2500000   0.1443375   0.0000000), wk =   0.2500000
        k(    6) = (   0.2500000   0.1443375   0.0000000), wk =   0.2500000
        k(    7) = (   0.5000000  -0.2886751   0.0000000), wk =   0.1250000
        k(    8) = (  -0.5000000  -0.2886751   0.0000000), wk =   0.1250000
        k(    9) = (  -0.2500000   0.4330126   0.0000000), wk =   0.2500000
        k(   10) = (   0.5000000   0.0000000   0.0000000), wk =   0.2500000

     Dense  grid:    29399 G-vectors     FFT dimensions: (  20,  20, 180)

     Estimated max dynamical RAM per process >       6.92 MB

     Estimated total dynamical RAM >      55.38 MB

     Initial potential from superposition of free atoms

     starting charge      15.9997, renormalised to      16.0000

     negative rho (up, down):  3.453E-04 0.000E+00
     Starting wfcs are   20 randomized atomic wfcs
     Checking if some PAW data can be deallocated... 

     total cpu time spent up to now is        0.8 secs

     per-process dynamical memory:    18.4 Mb

     Self-consistent Calculation

     iteration #  1     ecut=    40.00 Ry     beta= 0.70
     Davidson diagonalization with overlap
     ethr =  1.00E-02,  avg # of iterations =  2.7

     negative rho (up, down):  1.854E-04 0.000E+00

     total cpu time spent up to now is        1.0 secs

     total energy              =     -54.08231064 Ry
     estimated scf accuracy    <       0.96733966 Ry

     iteration #  2     ecut=    40.00 Ry     beta= 0.70
     Davidson diagonalization with overlap
     ethr =  6.05E-03,  avg # of iterations =  3.3

     negative rho (up, down):  2.112E-04 0.000E+00

     total cpu time spent up to now is        1.2 secs

     total energy              =     -54.22766621 Ry
     estimated scf accuracy    <       0.37277937 Ry

     iteration #  3     ecut=    40.00 Ry     beta= 0.70
     Davidson diagonalization with overlap
     ethr =  2.33E-03,  avg # of iterations =  4.4

     negative rho (up, down):  2.379E-04 0.000E+00

     total cpu time spent up to now is        1.4 secs

     total energy              =     -54.33897271 Ry
     estimated scf accuracy    <       0.05812935 Ry

     iteration #  4     ecut=    40.00 Ry     beta= 0.70
     Davidson diagonalization with overlap
     ethr =  3.63E-04,  avg # of iterations =  4.6

     negative rho (up, down):  2.600E-04 0.000E+00

     total cpu time spent up to now is        1.7 secs

     total energy              =     -54.34796655 Ry
     estimated scf accuracy    <       0.00613011 Ry

     iteration #  5     ecut=    40.00 Ry     beta= 0.70
     Davidson diagonalization with overlap
     ethr =  3.83E-05,  avg # of iterations =  4.7

     negative rho (up, down):  2.787E-04 0.000E+00

     total cpu time spent up to now is        1.9 secs

     total energy              =     -54.34837169 Ry
     estimated scf accuracy    <       0.00108453 Ry

     iteration #  6     ecut=    40.00 Ry     beta= 0.70
     Davidson diagonalization with overlap
     ethr =  6.78E-06,  avg # of iterations =  7.3

     negative rho (up, down):  2.833E-04 0.000E+00

     total cpu time spent up to now is        2.1 secs

     total energy              =     -54.34855169 Ry
     estimated scf accuracy    <       0.00010761 Ry

     iteration #  7     ecut=    40.00 Ry     beta= 0.70
     Davidson diagonalization with overlap
     c_bands:  1 eigenvalues not converged
     ethr =  6.73E-07,  avg # of iterations =  8.1

     negative rho (up, down):  2.835E-04 0.000E+00

     total cpu time spent up to now is        2.4 secs

     total energy              =     -54.34857862 Ry
     estimated scf accuracy    <       0.00001616 Ry

     iteration #  8     ecut=    40.00 Ry     beta= 0.70
     Davidson diagonalization with overlap
     ethr =  1.01E-07,  avg # of iterations =  2.0

     negative rho (up, down):  2.831E-04 0.000E+00

     total cpu time spent up to now is        2.6 secs

     total energy              =     -54.34857998 Ry
     estimated scf accuracy    <       0.00000157 Ry

     iteration #  9     ecut=    40.00 Ry     beta= 0.70
     Davidson diagonalization with overlap
     ethr =  9.81E-09,  avg # of iterations =  2.0

     negative rho (up, down):  2.833E-04 0.000E+00

     total cpu time spent up to now is        2.8 secs

     total energy              =     -54.34858026 Ry
     estimated scf accuracy    <       0.00000008 Ry

     iteration # 10     ecut=    40.00 Ry     beta= 0.70
     Davidson diagonalization with overlap
     ethr =  5.05E-10,  avg # of iterations =  2.0

     negative rho (up, down):  2.833E-04 0.000E+00

     total cpu time spent up to now is        3.0 secs

     End of self-consistent calculation

          k = 0.0000 0.0000 0.0000 (  3689 PWs)   bands (ev):

   -20.5398 -19.9928  -9.0428  -8.9205  -7.9452  -4.4116  -4.4103  -1.4911
     2.1263   2.4580   2.8340   3.6055

          k = 0.0000 0.2887 0.0000 (  3614 PWs)   bands (ev):

   -19.1144 -18.7777  -9.6190  -8.7133  -7.4362  -6.6494  -6.3426  -5.9489
     4.0429   4.3675   4.8173   5.5267

          k = 0.0000-0.5774 0.0000 (  3672 PWs)   bands (ev):

   -16.7858 -15.4755 -14.3287 -10.5841  -9.7244  -7.6627  -5.5690  -3.6062
     0.2700   5.6314   6.8259   7.3762

          k = 0.2500 0.4330 0.0000 (  3653 PWs)   bands (ev):

   -17.5609 -16.3622 -11.7863 -10.5743 -10.1014  -7.4989  -5.0323  -3.9113
     1.3282   5.6272   7.1130   8.0596

          k =-0.2500 0.1443 0.0000 (  3614 PWs)   bands (ev):

   -19.2168 -19.0781  -9.8042  -8.7122  -7.2831  -6.3912  -6.3427  -2.4220
     4.0339   4.3394   4.8036   5.2660

          k = 0.2500 0.1443 0.0000 (  3614 PWs)   bands (ev):

   -19.2172 -19.0776  -9.8038  -8.7131  -7.2846  -6.3894  -6.3416  -2.4220
     4.0326   4.3469   4.8024   5.2485

          k = 0.5000-0.2887 0.0000 (  3672 PWs)   bands (ev):

   -18.0925 -15.4785 -14.3264 -11.0800  -7.6631  -3.8939  -3.6384  -2.9883
     0.3069   2.0125   2.7008   5.6319

          k =-0.5000-0.2887 0.0000 (  3672 PWs)   bands (ev):

   -18.0927 -15.4753 -14.3303 -11.0794  -7.6626  -4.0065  -3.4907  -2.9889
     0.1966   2.0885   2.7019   5.6326

          k =-0.2500 0.4330 0.0000 (  3653 PWs)   bands (ev):

   -17.5607 -16.3628 -11.7842 -10.5742 -10.1034  -7.4988  -5.0274  -3.9212
     1.3396   5.6566   7.1074   8.0938

          k = 0.5000 0.0000 0.0000 (  3653 PWs)   bands (ev):

   -18.1831 -16.3630 -11.7852 -10.1467 -10.1022  -5.4995  -4.2797  -3.7287
     1.3036   2.6216   6.5347   7.4533

     the Fermi energy is    -0.8339 ev

!    total energy              =     -54.34858028 Ry
     estimated scf accuracy    <          3.0E-09 Ry
     smearing contrib. (-TS)   =       0.00000000 Ry
     internal energy E=F+TS    =     -54.34858028 Ry

     The total energy is F=E-TS. E is the sum of the following terms:
     one-electron contribution =    -688.30097313 Ry
     hartree contribution      =     347.87927757 Ry
     xc contribution           =     -15.14138607 Ry
     ewald contribution        =     307.22277110 Ry
     one-center paw contrib.   =      -6.00826976 Ry

     convergence has been achieved in  10 iterations

     Writing all to output data dir ./out/tensorspec_run.save/ :
     XML data file, charge density, pseudopotentials, collected wavefunctions

     init_run     :      0.51s CPU      0.52s WALL (       1 calls)
     electrons    :      2.03s CPU      2.21s WALL (       1 calls)

     Called by init_run:
     wfcinit      :      0.06s CPU      0.07s WALL (       1 calls)
     potinit      :      0.09s CPU      0.09s WALL (       1 calls)
     hinit0       :      0.35s CPU      0.36s WALL (       1 calls)

     Called by electrons:
     c_bands      :      0.99s CPU      1.13s WALL (      10 calls)
     sum_band     :      0.21s CPU      0.24s WALL (      10 calls)
     v_of_rho     :      0.04s CPU      0.05s WALL (      11 calls)
     newd         :      0.07s CPU      0.07s WALL (      11 calls)
     PAW_pot      :      0.79s CPU      0.79s WALL (      11 calls)
     mix_rho      :      0.01s CPU      0.01s WALL (      10 calls)

     Called by c_bands:
     init_us_2    :      0.05s CPU      0.05s WALL (     210 calls)
     cegterg      :      0.93s CPU      1.06s WALL (     100 calls)

     Called by *egterg:
     cdiaghg      :      0.14s CPU      0.15s WALL (     511 calls)
     h_psi        :      0.66s CPU      0.78s WALL (     521 calls)
     s_psi        :      0.02s CPU      0.03s WALL (     521 calls)
     g_psi        :      0.01s CPU      0.01s WALL (     411 calls)

     Called by h_psi:
     h_psi:calbec :      0.05s CPU      0.06s WALL (     521 calls)
     vloc_psi     :      0.58s CPU      0.68s WALL (     521 calls)
                                        0.00s GPU  (     521 calls)
     add_vuspsi   :      0.03s CPU      0.03s WALL (     521 calls)

     General routines
     calbec       :      0.06s CPU      0.07s WALL (     621 calls)
     fft          :      0.29s CPU      0.30s WALL (     121 calls)
     ffts         :      0.00s CPU      0.00s WALL (      10 calls)
     fftw         :      0.59s CPU      0.70s WALL (    8210 calls)

     Parallel routines

     PWSCF        :      2.79s CPU      3.01s WALL


   This run was terminated on:  19:46: 4  16Sep2026            

=------------------------------------------------------------------------------=
   JOB DONE.
=------------------------------------------------------------------------------=
