    20
 Wannier centres, written by Wannier90 on16Sep2026 at 19:46:15 
X          0.00953425       1.39302349       9.07613770
X          0.00355086       1.44443240       9.85377149
X         -0.01623921       1.35977181       8.79562194
X         -0.08117206       1.58353227       8.94482167
X          1.24983229       0.76409039       7.07772228
X          1.25349557       0.72862311       9.88892727
X          1.39957035       0.90862140       8.68171842
X          1.23197310       0.48850981       8.82289837
X         -0.62256529       1.26079450      -9.53621068
X         -0.56979322       1.25125286      -9.68450579
X         -0.89258401       1.22822498      -6.45358692
X         -0.71039447       1.34810437      -6.65523197
X          0.72157127       1.26513351      -8.56688822
X          0.77107769       1.24875132      -9.87698797
X          0.64061099       1.23714043      -9.90106677
X          0.72164612       1.26555556      -9.99184877
C         -0.00000125       1.44337672       9.99999000
C          1.25000125       0.72168728       9.99999000
B         -0.72168750       1.24999970      13.40001000
N          0.72168750       1.24999970      13.40001000
