    20
 Wannier centres, written by Wannier90 on16Sep2026 at 19:36:11 
X          0.00000617       1.44339100      10.03095675
X         -0.00000182       1.44337681       9.90199139
X         -0.01607062       1.32537317       9.04487828
X         -0.06682367       1.72885321       9.24260659
X          1.25002285       0.72167549       8.93971192
X          1.25000228       0.72168671       9.97005532
X          1.24163738       0.79998092       9.21349914
X          1.22523909       0.64461685       9.33498730
X         -0.00001171       1.44337991      -9.47419765
X         -0.00000113       1.44337654      -9.99368648
X         -0.03085920       0.92002057      -8.12984230
X         -0.27681771       1.69761345      -7.71041445
X          1.25001141       0.72167803      -9.86639887
X          1.25000271       0.72168646      -9.98308425
X          1.24625424       0.81217130      -9.75863968
X          1.22683641       0.63231552      -9.84211027
C         -0.00000125       1.44337672       9.99999000
C          1.25000125       0.72168728       9.99999000
B         -0.00000125       1.44337672      13.40001000
N          1.25000125       0.72168728      13.40001000
